WARNING: for repeatability, setting FPU to use double precision
============================[ Problem Statistics ]=============================
|                                                                             |
|  Number of variables:         12432                                         |
|  Number of clauses:          164976                                         |
|  Parse time:                   0.03 s                                       |
|                                                                             |
c ============================[ Search Statistics ]==============================
c | Conflicts |          ORIGINAL         |          LEARNT          | Progress |
c |           |    Vars  Clauses Literals |    Limit  Clauses Lit/Cl |          |
c ===============================================================================
c Switched to VSIDS.
c Switched to LRB.
c Switched to VSIDS.
c Switched to LRB.
c Switched to VSIDS.
c Switched to LRB.
c Switched to VSIDS.
c Switched to LRB.
c Switched to VSIDS.
c Switched to LRB.
c Switched to VSIDS.
c Switched to LRB.
c Switched to VSIDS.
c Switched to LRB.
c Switched to VSIDS.
c Switched to LRB.
c Switched to VSIDS.
c Switched to LRB.
c Switched to VSIDS.
c Switched to LRB.
c Switched to VSIDS.
c Switched to LRB.
c Switched to VSIDS.
c Switched to LRB.
c Switched to VSIDS.
c Switched to LRB.
c Switched to VSIDS.
c Switched to LRB.
c Switched to VSIDS.
c Switched to LRB.
c Switched to VSIDS.
c Switched to LRB.
c Switched to VSIDS.
c ===============================================================================
restarts                  : 111448
conflicts                 : 19423514       (5525 /sec)
decisions                 : 203796883      (0.00 % random) (57966 /sec)
propagations              : 7154635511     (2034991 /sec)
conflict literals         : 3331154837     (16.06 % deleted)

conflicts w/ DIP found    : 14180599       (73.01 % of conflicts)
conflicts w/ dangerous DIP: 0              (0.00 % of conflicts)
conflicts w/ DIP-learning : 40005          (0.21 % of conflicts)
decisions on ext vars     : 501545         (0.25 % of decisions)
total ext vars            : 7783        
tried delete ext vars     : 0           
deleted ext vars          : 0           
max ext vars              : 7783        

Memory used               : 1033.00 MB
CPU time                  : 3515.81 s
DIP computation time      : 142.916 s (4.06 % of total time)
ER_sel time               : 37.2139 s
ER_add time               : 0.044598 s
ER_delC time              : 0 s
ER_delV time              : 0 s
ER_sub time               : 42.4714 s
ER_stat time              : 0 s

INDETERMINATE
